Nodes = {"Palo-Alto", "San-Diego", "Boulder", "Washington", "Atlanta", "Urbana-Champaign", "Ann-Arbor", "Lincoln", "Princeton", "Ithaca", "Pittsburgh", "Houston", "Salt-Lake-City", "Seattle"};
Arcs = {<"Palo-Alto","San-Diego",28,0>, <"Palo-Alto","Boulder",28,17>, <"Palo-Alto","Washington",28,45>, <"Palo-Alto","Atlanta",28,38>, <"Palo-Alto","Urbana-Champaign",28,34>, <"Palo-Alto","Ann-Arbor",28,39>, <"Palo-Alto","Lincoln",28,26>, <"Palo-Alto","Princeton",28,48>, <"Palo-Alto","Ithaca",28,46>, <"Palo-Alto","Pittsburgh",28,43>, <"Palo-Alto","Houston",28,28>, <"Palo-Alto","Salt-Lake-City",28,0>, <"Palo-Alto","Seattle",28,0>, <"San-Diego","Palo-Alto",28,0>, <"San-Diego","Boulder",28,14>, <"San-Diego","Washington",28,41>, <"San-Diego","Atlanta",28,33>, <"San-Diego","Urbana-Champaign",28,30>, <"San-Diego","Ann-Arbor",28,35>, <"San-Diego","Lincoln",28,22>, <"San-Diego","Princeton",28,43>, <"San-Diego","Ithaca",28,42>, <"San-Diego","Pittsburgh",28,38>, <"San-Diego","Houston",28,0>, <"San-Diego","Salt-Lake-City",28,10>, <"San-Diego","Seattle",28,0>, <"Boulder","Palo-Alto",28,17>, <"Boulder","San-Diego",28,14>, <"Boulder","Washington",28,28>, <"Boulder","Atlanta",28,22>, <"Boulder","Urbana-Champaign",28,17>, <"Boulder","Ann-Arbor",28,22>, <"Boulder","Lincoln",28,0>, <"Boulder","Princeton",28,31>, <"Boulder","Ithaca",28,29>, <"Boulder","Pittsburgh",28,26>, <"Boulder","Houston",28,0>, <"Boulder","Salt-Lake-City",28,0>, <"Boulder","Seattle",28,19>, <"Washington","Palo-Alto",28,45>, <"Washington","San-Diego",28,41>, <"Washington","Boulder",28,28>, <"Washington","Atlanta",28,9>, <"Washington","Urbana-Champaign",28,11>, <"Washington","Ann-Arbor",28,7>, <"Washington","Lincoln",28,19>, <"Washington","Princeton",28,0>, <"Washington","Ithaca",28,0>, <"Washington","Pittsburgh",28,3>, <"Washington","Houston",28,0>, <"Washington","Salt-Lake-City",28,35>, <"Washington","Seattle",28,46>, <"Atlanta","Palo-Alto",28,38>, <"Atlanta","San-Diego",28,33>, <"Atlanta","Boulder",28,22>, <"Atlanta","Washington",28,9>, <"Atlanta","Urbana-Champaign",28,8>, <"Atlanta","Ann-Arbor",28,9>, <"Atlanta","Lincoln",28,14>, <"Atlanta","Princeton",28,12>, <"Atlanta","Ithaca",28,12>, <"Atlanta","Pittsburgh",28,0>, <"Atlanta","Houston",28,0>, <"Atlanta","Salt-Lake-City",28,28>, <"Atlanta","Seattle",28,40>, <"Urbana-Champaign","Palo-Alto",28,34>, <"Urbana-Champaign","San-Diego",28,30>, <"Urbana-Champaign","Boulder",28,17>, <"Urbana-Champaign","Washington",28,11>, <"Urbana-Champaign","Atlanta",28,8>, <"Urbana-Champaign","Ann-Arbor",28,5>, <"Urbana-Champaign","Lincoln",28,0>, <"Urbana-Champaign","Princeton",28,14>, <"Urbana-Champaign","Ithaca",28,12>, <"Urbana-Champaign","Pittsburgh",28,0>, <"Urbana-Champaign","Houston",28,13>, <"Urbana-Champaign","Salt-Lake-City",28,23>, <"Urbana-Champaign","Seattle",28,0>, <"Ann-Arbor","Palo-Alto",28,39>, <"Ann-Arbor","San-Diego",28,35>, <"Ann-Arbor","Boulder",28,22>, <"Ann-Arbor","Washington",28,7>, <"Ann-Arbor","Atlanta",28,9>, <"Ann-Arbor","Urbana-Champaign",28,5>, <"Ann-Arbor","Lincoln",28,13>, <"Ann-Arbor","Princeton",28,0>, <"Ann-Arbor","Ithaca",28,0>, <"Ann-Arbor","Pittsburgh",28,4>, <"Ann-Arbor","Houston",28,17>, <"Ann-Arbor","Salt-Lake-City",28,0>, <"Ann-Arbor","Seattle",28,39>, <"Lincoln","Palo-Alto",28,26>, <"Lincoln","San-Diego",28,22>, <"Lincoln","Boulder",28,0>, <"Lincoln","Washington",28,19>, <"Lincoln","Atlanta",28,14>, <"Lincoln","Urbana-Champaign",28,0>, <"Lincoln","Ann-Arbor",28,13>, <"Lincoln","Princeton",28,22>, <"Lincoln","Ithaca",28,20>, <"Lincoln","Pittsburgh",28,17>, <"Lincoln","Houston",28,11>, <"Lincoln","Salt-Lake-City",28,15>, <"Lincoln","Seattle",28,27>, <"Princeton","Palo-Alto",28,48>, <"Princeton","San-Diego",28,43>, <"Princeton","Boulder",28,31>, <"Princeton","Washington",28,0>, <"Princeton","Atlanta",28,12>, <"Princeton","Urbana-Champaign",28,14>, <"Princeton","Ann-Arbor",28,0>, <"Princeton","Lincoln",28,22>, <"Princeton","Ithaca",28,3>, <"Princeton","Pittsburgh",28,0>, <"Princeton","Houston",28,23>, <"Princeton","Salt-Lake-City",28,37>, <"Princeton","Seattle",28,48>, <"Ithaca","Palo-Alto",28,46>, <"Ithaca","San-Diego",28,42>, <"Ithaca","Boulder",28,29>, <"Ithaca","Washington",28,0>, <"Ithaca","Atlanta",28,12>, <"Ithaca","Urbana-Champaign",28,12>, <"Ithaca","Ann-Arbor",28,0>, <"Ithaca","Lincoln",28,20>, <"Ithaca","Princeton",28,3>, <"Ithaca","Pittsburgh",28,0>, <"Ithaca","Houston",28,23>, <"Ithaca","Salt-Lake-City",28,35>, <"Ithaca","Seattle",28,46>, <"Pittsburgh","Palo-Alto",28,43>, <"Pittsburgh","San-Diego",28,38>, <"Pittsburgh","Boulder",28,26>, <"Pittsburgh","Washington",28,3>, <"Pittsburgh","Atlanta",28,0>, <"Pittsburgh","Urbana-Champaign",28,0>, <"Pittsburgh","Ann-Arbor",28,4>, <"Pittsburgh","Lincoln",28,17>, <"Pittsburgh","Princeton",28,0>, <"Pittsburgh","Ithaca",28,0>, <"Pittsburgh","Houston",28,19>, <"Pittsburgh","Salt-Lake-City",28,32>, <"Pittsburgh","Seattle",28,43>, <"Houston","Palo-Alto",28,28>, <"Houston","San-Diego",28,0>, <"Houston","Boulder",28,0>, <"Houston","Washington",28,0>, <"Houston","Atlanta",28,0>, <"Houston","Urbana-Champaign",28,13>, <"Houston","Ann-Arbor",28,17>, <"Houston","Lincoln",28,11>, <"Houston","Princeton",28,23>, <"Houston","Ithaca",28,23>, <"Houston","Pittsburgh",28,19>, <"Houston","Salt-Lake-City",28,20>, <"Houston","Seattle",28,32>, <"Salt-Lake-City","Palo-Alto",28,0>, <"Salt-Lake-City","San-Diego",28,10>, <"Salt-Lake-City","Boulder",28,0>, <"Salt-Lake-City","Washington",28,35>, <"Salt-Lake-City","Atlanta",28,28>, <"Salt-Lake-City","Urbana-Champaign",28,23>, <"Salt-Lake-City","Ann-Arbor",28,0>, <"Salt-Lake-City","Lincoln",28,15>, <"Salt-Lake-City","Princeton",28,37>, <"Salt-Lake-City","Ithaca",28,35>, <"Salt-Lake-City","Pittsburgh",28,32>, <"Salt-Lake-City","Houston",28,20>, <"Salt-Lake-City","Seattle",28,13>, <"Seattle","Palo-Alto",28,0>, <"Seattle","San-Diego",28,0>, <"Seattle","Boulder",28,19>, <"Seattle","Washington",28,46>, <"Seattle","Atlanta",28,40>, <"Seattle","Urbana-Champaign",28,0>, <"Seattle","Ann-Arbor",28,39>, <"Seattle","Lincoln",28,27>, <"Seattle","Princeton",28,48>, <"Seattle","Ithaca",28,46>, <"Seattle","Pittsburgh",28,43>, <"Seattle","Houston",28,32>, <"Seattle","Salt-Lake-City",28,13>};
Demands = {<"Palo-Alto","San-Diego",2,0>, <"Palo-Alto","Boulder",4,0>, <"Palo-Alto","Washington",6,0>, <"Palo-Alto","Atlanta",8,0>, <"Palo-Alto","Urbana-Champaign",10,0>, <"Palo-Alto","Ann-Arbor",12,0>, <"Palo-Alto","Lincoln",14,0>, <"Palo-Alto","Princeton",16,0>, <"Palo-Alto","Ithaca",18,0>, <"Palo-Alto","Pittsburgh",20,0>, <"Palo-Alto","Houston",22,0>, <"Palo-Alto","Salt-Lake-City",24,0>, <"Palo-Alto","Seattle",26,0>, <"San-Diego","Palo-Alto",2,0>, <"San-Diego","Boulder",2,0>, <"San-Diego","Washington",4,0>, <"San-Diego","Atlanta",6,0>, <"San-Diego","Urbana-Champaign",8,0>, <"San-Diego","Ann-Arbor",10,0>, <"San-Diego","Lincoln",12,0>, <"San-Diego","Princeton",14,0>, <"San-Diego","Ithaca",16,0>, <"San-Diego","Pittsburgh",18,0>, <"San-Diego","Houston",20,0>, <"San-Diego","Salt-Lake-City",22,0>, <"San-Diego","Seattle",24,0>, <"Boulder","Palo-Alto",4,0>, <"Boulder","San-Diego",2,0>, <"Boulder","Washington",2,0>, <"Boulder","Atlanta",4,0>, <"Boulder","Urbana-Champaign",6,0>, <"Boulder","Ann-Arbor",8,0>, <"Boulder","Lincoln",10,0>, <"Boulder","Princeton",12,0>, <"Boulder","Ithaca",14,0>, <"Boulder","Pittsburgh",16,0>, <"Boulder","Houston",18,0>, <"Boulder","Salt-Lake-City",20,0>, <"Boulder","Seattle",22,0>, <"Washington","Palo-Alto",6,0>, <"Washington","San-Diego",4,0>, <"Washington","Boulder",2,0>, <"Washington","Atlanta",2,0>, <"Washington","Urbana-Champaign",4,0>, <"Washington","Ann-Arbor",6,0>, <"Washington","Lincoln",8,0>, <"Washington","Princeton",10,0>, <"Washington","Ithaca",12,0>, <"Washington","Pittsburgh",14,0>, <"Washington","Houston",16,0>, <"Washington","Salt-Lake-City",18,0>, <"Washington","Seattle",20,0>, <"Atlanta","Palo-Alto",8,0>, <"Atlanta","San-Diego",6,0>, <"Atlanta","Boulder",4,0>, <"Atlanta","Washington",2,0>, <"Atlanta","Urbana-Champaign",2,0>, <"Atlanta","Ann-Arbor",4,0>, <"Atlanta","Lincoln",6,0>, <"Atlanta","Princeton",8,0>, <"Atlanta","Ithaca",10,0>, <"Atlanta","Pittsburgh",12,0>, <"Atlanta","Houston",14,0>, <"Atlanta","Salt-Lake-City",16,0>, <"Atlanta","Seattle",18,0>, <"Urbana-Champaign","Palo-Alto",10,0>, <"Urbana-Champaign","San-Diego",8,0>, <"Urbana-Champaign","Boulder",6,0>, <"Urbana-Champaign","Washington",4,0>, <"Urbana-Champaign","Atlanta",2,0>, <"Urbana-Champaign","Ann-Arbor",2,0>, <"Urbana-Champaign","Lincoln",4,0>, <"Urbana-Champaign","Princeton",6,0>, <"Urbana-Champaign","Ithaca",8,0>, <"Urbana-Champaign","Pittsburgh",10,0>, <"Urbana-Champaign","Houston",12,0>, <"Urbana-Champaign","Salt-Lake-City",14,0>, <"Urbana-Champaign","Seattle",16,0>, <"Ann-Arbor","Palo-Alto",12,0>, <"Ann-Arbor","San-Diego",10,0>, <"Ann-Arbor","Boulder",8,0>, <"Ann-Arbor","Washington",6,0>, <"Ann-Arbor","Atlanta",4,0>, <"Ann-Arbor","Urbana-Champaign",2,0>, <"Ann-Arbor","Lincoln",2,0>, <"Ann-Arbor","Princeton",4,0>, <"Ann-Arbor","Ithaca",6,0>, <"Ann-Arbor","Pittsburgh",8,0>, <"Ann-Arbor","Houston",10,0>, <"Ann-Arbor","Salt-Lake-City",12,0>, <"Ann-Arbor","Seattle",14,0>, <"Lincoln","Palo-Alto",14,0>, <"Lincoln","San-Diego",12,0>, <"Lincoln","Boulder",10,0>, <"Lincoln","Washington",8,0>, <"Lincoln","Atlanta",6,0>, <"Lincoln","Urbana-Champaign",4,0>, <"Lincoln","Ann-Arbor",2,0>, <"Lincoln","Princeton",2,0>, <"Lincoln","Ithaca",4,0>, <"Lincoln","Pittsburgh",6,0>, <"Lincoln","Houston",8,0>, <"Lincoln","Salt-Lake-City",10,0>, <"Lincoln","Seattle",12,0>, <"Princeton","Palo-Alto",16,0>, <"Princeton","San-Diego",14,0>, <"Princeton","Boulder",12,0>, <"Princeton","Washington",10,0>, <"Princeton","Atlanta",8,0>, <"Princeton","Urbana-Champaign",6,0>, <"Princeton","Ann-Arbor",4,0>, <"Princeton","Lincoln",2,0>, <"Princeton","Ithaca",2,0>, <"Princeton","Pittsburgh",4,0>, <"Princeton","Houston",6,0>, <"Princeton","Salt-Lake-City",8,0>, <"Princeton","Seattle",10,0>, <"Ithaca","Palo-Alto",18,0>, <"Ithaca","San-Diego",16,0>, <"Ithaca","Boulder",14,0>, <"Ithaca","Washington",12,0>, <"Ithaca","Atlanta",10,0>, <"Ithaca","Urbana-Champaign",8,0>, <"Ithaca","Ann-Arbor",6,0>, <"Ithaca","Lincoln",4,0>, <"Ithaca","Princeton",2,0>, <"Ithaca","Pittsburgh",2,0>, <"Ithaca","Houston",4,0>, <"Ithaca","Salt-Lake-City",6,0>, <"Ithaca","Seattle",8,0>, <"Pittsburgh","Palo-Alto",20,0>, <"Pittsburgh","San-Diego",18,0>, <"Pittsburgh","Boulder",16,0>, <"Pittsburgh","Washington",14,0>, <"Pittsburgh","Atlanta",12,0>, <"Pittsburgh","Urbana-Champaign",10,0>, <"Pittsburgh","Ann-Arbor",8,0>, <"Pittsburgh","Lincoln",6,0>, <"Pittsburgh","Princeton",4,0>, <"Pittsburgh","Ithaca",2,0>, <"Pittsburgh","Houston",2,0>, <"Pittsburgh","Salt-Lake-City",4,0>, <"Pittsburgh","Seattle",6,0>, <"Houston","Palo-Alto",22,0>, <"Houston","San-Diego",20,0>, <"Houston","Boulder",18,0>, <"Houston","Washington",16,0>, <"Houston","Atlanta",14,0>, <"Houston","Urbana-Champaign",12,0>, <"Houston","Ann-Arbor",10,0>, <"Houston","Lincoln",8,0>, <"Houston","Princeton",6,0>, <"Houston","Ithaca",4,0>, <"Houston","Pittsburgh",2,0>, <"Houston","Salt-Lake-City",2,0>, <"Houston","Seattle",4,0>, <"Salt-Lake-City","Palo-Alto",24,0>, <"Salt-Lake-City","San-Diego",22,0>, <"Salt-Lake-City","Boulder",20,0>, <"Salt-Lake-City","Washington",18,0>, <"Salt-Lake-City","Atlanta",16,0>, <"Salt-Lake-City","Urbana-Champaign",14,0>, <"Salt-Lake-City","Ann-Arbor",12,0>, <"Salt-Lake-City","Lincoln",10,0>, <"Salt-Lake-City","Princeton",8,0>, <"Salt-Lake-City","Ithaca",6,0>, <"Salt-Lake-City","Pittsburgh",4,0>, <"Salt-Lake-City","Houston",2,0>, <"Salt-Lake-City","Seattle",2,0>, <"Seattle","Palo-Alto",26,0>, <"Seattle","San-Diego",24,0>, <"Seattle","Boulder",22,0>, <"Seattle","Washington",20,0>, <"Seattle","Atlanta",18,0>, <"Seattle","Urbana-Champaign",16,0>, <"Seattle","Ann-Arbor",14,0>, <"Seattle","Lincoln",12,0>, <"Seattle","Princeton",10,0>, <"Seattle","Ithaca",8,0>, <"Seattle","Pittsburgh",6,0>, <"Seattle","Houston",4,0>, <"Seattle","Salt-Lake-City",2,0>};
